numOfMachines = 4;
numOfRobots = 2;
numOfJobs = 6;
maxOperations = 4;
operationsCount = [3,3,3,3,4,4];

operation = [
[<0,0,0>,<2,12,0>,<3,21,0>,<4,11,1>],
[<0,0,0>,<2,12,0>,<3,21,0>,<4,11,0>],
[<0,0,0>,<2,12,0>,<3,21,0>,<4,11,0>],
[<0,0,0>,<2,12,0>,<3,21,0>,<4,11,0>],
[<0,0,0>,<1,10,0>,<2,14,0>,<3,18,0>,<4,9,1>],
[<0,0,0>,<1,10,0>,<2,14,0>,<3,18,0>,<4,9,1>]
];